50959.0
30, 215, 458, 564, 646, 732, 743, 1165, 1534, 1584, 1609, 1617, 1621, 1757, 1805, 1890, 1988, 2124, 2171, 2243, 2264, 2365, 2373, 2379, 2392, 2393, 2444, 2451, 2489, 2504, 2509, 2511, 2516, 2615, 2736, 2738, 2943, 3006, 3175, 3358, 3405, 3477, 3501, 3512, 3536, 3569, 3625, 3795, 3801, 3866, 3909, 3952, 4020, 4026, 4091, 4131, 4179, 4202, 4240, 4271, 4357, 4399, 4662, 4717, 4730, 4832, 4898, 4904, 4963